50
100
100
100
100
99
97
95
95
95
93
93
91
90
87
87
86
85
85
84
84
84
82
80
77
76
72
70
67
66
65
64
59
56
55
52
48
46
45
44
41
38
37
35
35
34
34
33
33
32
32
31
